n = 25
Q1 = [0 44 8 0 0 9 0 32 0 0 0 0 9 25 16 40 0 39 0 0 0 20 0 0 0; 0 0 46 35 0 0 0 29 0 9 0 27 32 6 0 13 43 8 0 0 0 15 0 9 36; 0 0 0 0 0 21 27 30 0 17 0 0 13 45 6 8 7 0 0 26 0 0 5 0 0; 0 0 0 0 0 0 50 0 0 0 0 0 42 0 0 0 0 0 19 0 20 0 21 30 0; 0 0 0 0 0 0 0 0 48 0 0 0 0 30 13 0 0 0 0 0 0 5 12 0 0; 0 0 0 0 0 0 0 38 0 0 25 0 0 0 0 19 16 27 19 0 12 23 45 0 0; 0 0 0 0 0 0 0 50 0 0 0 0 37 0 0 0 0 29 31 0 0 33 32 26 0; 0 0 0 0 0 0 0 0 0 0 24 26 28 0 0 0 0 20 7 19 10 0 0 0 26; 0 0 0 0 0 0 0 0 0 0 28 0 0 30 0 34 0 16 22 0 28 21 0 36 0; 0 0 0 0 0 0 0 0 0 0 32 0 38 0 36 0 0 33 5 0 0 0 0 0 0; 0 0 0 0 0 0 0 0 0 0 0 0 0 0 0 0 15 43 12 0 42 48 0 0 0; 0 0 0 0 0 0 0 0 0 0 0 0 0 0 22 49 0 0 20 0 43 0 6 31 0; 0 0 0 0 0 0 0 0 0 0 0 0 0 45 50 0 0 0 40 29 0 0 18 0 10; 0 0 0 0 0 0 0 0 0 0 0 0 0 0 15 0 14 0 0 0 50 7 0 0 31; 0 0 0 0 0 0 0 0 0 0 0 0 0 0 0 46 41 0 6 13 0 0 0 16 18; 0 0 0 0 0 0 0 0 0 0 0 0 0 0 0 0 38 18 0 13 0 0 0 0 0; 0 0 0 0 0 0 0 0 0 0 0 0 0 0 0 0 0 50 0 19 11 0 0 0 32; 0 0 0 0 0 0 0 0 0 0 0 0 0 0 0 0 0 0 47 0 0 10 48 10 0; 0 0 0 0 0 0 0 0 0 0 0 0 0 0 0 0 0 0 0 21 21 0 0 7 0; 0 0 0 0 0 0 0 0 0 0 0 0 0 0 0 0 0 0 0 0 0 29 17 30 0; 0 0 0 0 0 0 0 0 0 0 0 0 0 0 0 0 0 0 0 0 0 17 10 42 48; 0 0 0 0 0 0 0 0 0 0 0 0 0 0 0 0 0 0 0 0 0 0 0 0 33; 0 0 0 0 0 0 0 0 0 0 0 0 0 0 0 0 0 0 0 0 0 0 0 0 0; 0 0 0 0 0 0 0 0 0 0 0 0 0 0 0 0 0 0 0 0 0 0 0 0 0; 0 0 0 0 0 0 0 0 0 0 0 0 0 0 0 0 0 0 0 0 0 0 0 0 0]
Q2 = [0.0 5.0 49.0 0.0 0.0 44.0 0.0 5.0 0.0 0.0 0.0 0.0 42.0 4.0 41.0 4.0 0.0 5.0 0.0 0.0 0.0 46.0 0.0 0.0 0.0; 0.0 0.0 4.0 6.0 0.0 0.0 0.0 1.0 0.0 45.0 0.0 3.0 18.0 45.0 0.0 47.0 0.0 46.0 0.0 0.0 0.0 40.0 0.0 50.0 6.0; 0.0 0.0 0.0 0.0 0.0 48.0 0.0 18.0 0.0 36.0 0.0 0.0 44.0 2.0 50.0 46.0 49.0 0.0 0.0 9.0 0.0 0.0 47.0 0.0 0.0; 0.0 0.0 0.0 0.0 0.0 0.0 0.0 0.0 0.0 0.0 0.0 0.0 5.0 0.0 0.0 0.0 0.0 0.0 44.0 0.0 50.0 0.0 41.0 3.0 0.0; 0.0 0.0 0.0 0.0 0.0 0.0 0.0 0.0 2.0 0.0 0.0 0.0 0.0 11.0 46.0 0.0 0.0 0.0 0.0 0.0 0.0 47.0 45.0 0.0 0.0; 0.0 0.0 0.0 0.0 0.0 0.0 0.0 6.0 0.0 0.0 17.0 0.0 0.0 0.0 0.0 33.0 44.0 15.0 33.0 0.0 45.0 42.0 5.0 0.0 0.0; 0.0 0.0 0.0 0.0 0.0 0.0 0.0 0.0 0.0 0.0 0.0 0.0 7.0 0.0 0.0 0.0 0.0 9.0 15.0 0.0 0.0 4.0 4.0 24.0 0.0; 0.0 0.0 0.0 0.0 0.0 0.0 0.0 0.0 0.0 0.0 29.0 22.0 10.0 0.0 0.0 0.0 0.0 50.0 46.0 49.0 45.0 0.0 0.0 0.0 2.0; 0.0 0.0 0.0 0.0 0.0 0.0 0.0 0.0 0.0 0.0 16.0 0.0 0.0 1.0 0.0 10.0 0.0 34.0 45.0 0.0 8.0 41.0 0.0 2.0 0.0; 0.0 0.0 0.0 0.0 0.0 0.0 0.0 0.0 0.0 0.0 9.0 0.0 10.0 0.0 13.0 0.0 0.0 11.0 45.0 0.0 0.0 0.0 0.0 0.0 0.0; 0.0 0.0 0.0 0.0 0.0 0.0 0.0 0.0 0.0 0.0 0.0 0.0 0.0 0.0 0.0 0.0 46.0 2.0 42.0 0.0 4.0 2.0 0.0 0.0 0.0; 0.0 0.0 0.0 0.0 0.0 0.0 0.0 0.0 0.0 0.0 0.0 0.0 0.0 0.0 39.0 0.0 0.0 0.0 44.0 0.0 6.0 0.0 47.0 13.0 0.0; 0.0 0.0 0.0 0.0 0.0 0.0 0.0 0.0 0.0 0.0 0.0 0.0 0.0 5.0 0.0 0.0 0.0 0.0 2.0 8.0 0.0 0.0 38.0 0.0 43.0; 0.0 0.0 0.0 0.0 0.0 0.0 0.0 0.0 0.0 0.0 0.0 0.0 0.0 0.0 46.0 0.0 39.0 0.0 0.0 0.0 0.0 43.0 0.0 0.0 17.0; 0.0 0.0 0.0 0.0 0.0 0.0 0.0 0.0 0.0 0.0 0.0 0.0 0.0 0.0 0.0 4.0 9.0 0.0 47.0 38.0 0.0 0.0 0.0 47.0 43.0; 0.0 0.0 0.0 0.0 0.0 0.0 0.0 0.0 0.0 0.0 0.0 0.0 0.0 0.0 0.0 0.0 12.0 40.0 0.0 50.0 0.0 0.0 0.0 0.0 0.0; 0.0 0.0 0.0 0.0 0.0 0.0 0.0 0.0 0.0 0.0 0.0 0.0 0.0 0.0 0.0 0.0 0.0 0.0 0.0 35.0 41.0 0.0 0.0 0.0 1.0; 0.0 0.0 0.0 0.0 0.0 0.0 0.0 0.0 0.0 0.0 0.0 0.0 0.0 0.0 0.0 0.0 0.0 0.0 3.0 0.0 0.0 40.0 0.0 50.0 0.0; 0.0 0.0 0.0 0.0 0.0 0.0 0.0 0.0 0.0 0.0 0.0 0.0 0.0 0.0 0.0 0.0 0.0 0.0 0.0 46.0 31.0 0.0 0.0 46.0 0.0; 0.0 0.0 0.0 0.0 0.0 0.0 0.0 0.0 0.0 0.0 0.0 0.0 0.0 0.0 0.0 0.0 0.0 0.0 0.0 0.0 0.0 19.0 37.0 16.0 0.0; 0.0 0.0 0.0 0.0 0.0 0.0 0.0 0.0 0.0 0.0 0.0 0.0 0.0 0.0 0.0 0.0 0.0 0.0 0.0 0.0 0.0 48.0 47.0 3.0 0.0; 0.0 0.0 0.0 0.0 0.0 0.0 0.0 0.0 0.0 0.0 0.0 0.0 0.0 0.0 0.0 0.0 0.0 0.0 0.0 0.0 0.0 0.0 0.0 0.0 11.0; 0.0 0.0 0.0 0.0 0.0 0.0 0.0 0.0 0.0 0.0 0.0 0.0 0.0 0.0 0.0 0.0 0.0 0.0 0.0 0.0 0.0 0.0 0.0 0.0 0.0; 0.0 0.0 0.0 0.0 0.0 0.0 0.0 0.0 0.0 0.0 0.0 0.0 0.0 0.0 0.0 0.0 0.0 0.0 0.0 0.0 0.0 0.0 0.0 0.0 0.0; 0.0 0.0 0.0 0.0 0.0 0.0 0.0 0.0 0.0 0.0 0.0 0.0 0.0 0.0 0.0 0.0 0.0 0.0 0.0 0.0 0.0 0.0 0.0 0.0 0.0]
Q3 = [0 5 2 70 70 13 70 18 70 70 70 70 19 61 2 14 70 14 70 70 70 1 70 70 70; 0 0 10 4 70 70 70 62 70 4 70 51 13 11 70 5 23 0 70 70 70 5 70 3 19; 0 0 0 70 70 1 44 22 70 2 70 70 1 9 1 13 9 70 70 33 70 70 11 70 70; 0 0 0 0 70 70 16 70 70 70 70 70 3 70 70 70 70 70 6 70 0 70 8 55 70; 0 0 0 0 0 70 70 70 1 70 70 70 70 5 9 70 70 70 70 70 70 5 5 70 70; 0 0 0 0 0 0 70 24 70 70 24 70 70 70 70 13 10 11 11 70 7 0 17 70 70; 0 0 0 0 0 0 0 2 70 70 70 70 18 70 70 70 70 29 5 70 70 24 19 19 70; 0 0 0 0 0 0 0 0 70 70 9 20 3 70 70 70 70 0 7 1 12 70 70 70 48; 0 0 0 0 0 0 0 0 0 70 11 70 70 64 70 0 70 5 0 70 31 3 70 30 70; 0 0 0 0 0 0 0 0 0 0 5 70 19 70 18 70 70 8 16 70 70 70 70 70 70; 0 0 0 0 0 0 0 0 0 0 0 70 70 70 70 70 5 19 13 70 0 11 70 70 70; 0 0 0 0 0 0 0 0 0 0 0 0 70 70 1 11 70 70 3 70 13 70 14 25 70; 0 0 0 0 0 0 0 0 0 0 0 0 0 17 5 70 70 70 19 8 70 70 9 70 10; 0 0 0 0 0 0 0 0 0 0 0 0 0 0 2 70 11 70 70 70 7 1 70 70 1; 0 0 0 0 0 0 0 0 0 0 0 0 0 0 0 17 20 70 8 11 70 70 70 3 4; 0 0 0 0 0 0 0 0 0 0 0 0 0 0 0 0 14 5 70 2 70 70 70 70 70; 0 0 0 0 0 0 0 0 0 0 0 0 0 0 0 0 0 13 70 7 10 70 70 70 40; 0 0 0 0 0 0 0 0 0 0 0 0 0 0 0 0 0 0 17 70 70 6 11 1 70; 0 0 0 0 0 0 0 0 0 0 0 0 0 0 0 0 0 0 0 0 4 70 70 11 70; 0 0 0 0 0 0 0 0 0 0 0 0 0 0 0 0 0 0 0 0 70 1 12 17 70; 0 0 0 0 0 0 0 0 0 0 0 0 0 0 0 0 0 0 0 0 0 1 8 11 9; 0 0 0 0 0 0 0 0 0 0 0 0 0 0 0 0 0 0 0 0 0 0 70 70 16; 0 0 0 0 0 0 0 0 0 0 0 0 0 0 0 0 0 0 0 0 0 0 0 70 70; 0 0 0 0 0 0 0 0 0 0 0 0 0 0 0 0 0 0 0 0 0 0 0 0 70; 0 0 0 0 0 0 0 0 0 0 0 0 0 0 0 0 0 0 0 0 0 0 0 0 0]
